33D32945 STP File, STP Format Version 1.0

SECTION Comments
Name "edge_n10_d5_s27"
Problem "Euclidean Steiner Tree Problem"
Remark "Generated with STPGenerator. 5 dimensions."
END

SECTION Graph
Nodes 10
END

SECTION Coordinates
DDDDD 0 0.6598329719 0.6598329719 0.6598329719 0.6598329719 0.6598329719
DDDDD 1 0.1353963139 0.1353963139 0.1353963139 0.1353963139 0.1353963139
DDDDD 2 0.1522402149 0.1522402149 0.1522402149 0.1522402149 0.1522402149
DDDDD 3 0.1232835241 0.1232835241 0.1232835241 0.1232835241 0.1232835241
DDDDD 4 0.6977873504 0.6977873504 0.6977873504 0.6977873504 0.6977873504
DDDDD 5 0.4392972800 0.4392972800 0.4392972800 0.4392972800 0.4392972800
DDDDD 6 0.7240747631 0.7240747631 0.7240747631 0.7240747631 0.7240747631
DDDDD 7 0.4406859998 0.4406859998 0.4406859998 0.4406859998 0.4406859998
DDDDD 8 0.7210137708 0.7210137708 0.7210137708 0.7210137708 0.7210137708
DDDDD 9 0.2581046555 0.2581046555 0.2581046555 0.2581046555 0.2581046555
END
